50 2035
594 812 1068 803 851 936 857 1079 1152 1016 938 1043 406 749 964 710 1152 412 368 560 667 371 820 930 677 1110 1140 859 329 860 771 509 785 705 1111 760 542 972 968 1064 290 1080 894 460 1081 551 290 145 662 1115 
210 414 804 404 461 577 469 827 994 706 579 755 95 346 619 308 994 98 78 185 269 79 424 568 277 894 964 471 62 472 369 152 384 303 895 357 173 631 626 795 48 829 517 123 830 179 48 12 264 905 
